20 380
0 1 55.2
0 2 18.2
0 3 63.1
0 4 70.1
0 5 5.7
0 6 43.2
0 7 61.1
0 8 59.4
0 9 56.6
0 10 81.8
0 11 61.1
0 12 49.2
0 13 31.1
0 14 21.4
0 15 85.5
0 16 17.3
0 17 12.3
0 18 50.6
0 19 71.2
1 2 52.7
1 3 20.9
1 4 24.4
1 5 60.6
1 6 39.3
1 7 37.2
1 8 6.2
1 9 32.0
1 10 31.5
1 11 6.3
1 12 60.0
1 13 34.5
1 14 40.1
1 15 35.5
1 16 37.8
1 17 49.7
1 18 39.6
1 19 23.6
2 3 66.1
2 4 61.4
2 5 22.1
2 6 28.3
2 7 69.4
2 8 55.2
2 9 44.0
2 10 73.9
2 11 57.7
2 12 31.0
2 13 40.5
2 14 32.4
2 15 77.1
2 16 20.8
2 17 27.8
2 18 35.8
2 19 63.1
3 4 42.4
3 5 67.7
3 6 58.7
3 7 19.6
3 8 25.2
3 9 52.9
3 10 45.1
3 11 22.5
3 12 79.2
3 13 34.3
3 14 43.2
3 15 48.7
3 16 47.2
3 17 54.1
3 18 59.9
3 19 40.8
4 5 75.8
4 6 37.3
4 7 60.9
4 8 18.3
4 9 21.6
4 10 12.7
4 11 20.2
4 12 55.6
4 13 56.9
4 14 60.3
4 15 15.7
4 16 53.7
4 17 68.1
4 18 32.9
4 19 2.7
5 6 48.4
5 7 64.5
5 8 64.9
5 9 62.1
5 10 87.5
5 11 66.6
5 12 53.0
5 13 34.8
5 14 25.1
5 15 91.2
5 16 22.8
5 17 14.7
5 18 55.8
5 19 76.9
6 7 69.7
6 8 38.5
6 9 16.8
6 10 49.8
6 11 41.8
6 12 20.8
6 13 48.6
6 14 45.4
6 15 52.4
6 16 33.0
6 17 47.5
6 18 7.5
6 19 39.5
7 8 42.7
7 9 67.7
7 10 64.6
7 11 40.6
7 12 88.9
7 13 30.1
7 14 39.7
7 15 68.3
7 16 48.6
7 17 49.8
7 18 72.7
7 19 59.5
8 9 28.8
8 10 25.4
8 11 3.3
8 12 59.2
8 13 40.5
8 14 45.5
8 15 29.4
8 16 42.1
8 17 54.8
8 18 37.6
8 19 17.4
9 10 33.7
9 11 32.0
9 12 34.0
9 13 53.4
9 14 53.2
9 15 36.0
9 16 42.9
9 17 58.1
9 18 11.4
9 19 24.1
10 11 25.7
10 12 67.6
10 13 65.8
10 14 70.4
10 15 4.0
10 16 65.1
10 17 78.9
10 18 45.1
10 19 10.8
11 12 62.5
11 13 40.7
11 14 46.4
11 15 29.7
11 16 43.8
11 17 55.9
11 18 41.0
11 19 18.9
12 13 64.6
12 14 59.1
12 15 69.6
12 16 45.9
12 17 57.6
12 18 22.7
12 19 58.1
13 14 9.7
13 15 69.8
13 16 19.9
13 17 20.4
13 18 53.8
13 19 56.8
14 15 74.3
14 16 13.2
14 17 10.9
14 18 51.6
14 19 60.6
15 16 68.8
15 17 82.8
15 18 47.3
15 19 14.3
16 17 15.2
16 18 39.6
16 19 54.6
17 18 54.4
17 19 68.8
18 19 35.4
